GLPSOL--GLPK LP/MIP Solver 5.0
Parameter(s) specified in the command line:
 --lp ../modeles/2_104.lp --log 2_104.log
Reading problem data from '../modeles/2_104.lp'...
217 rows, 420 columns, 1462 non-zeros
208 integer variables, all of which are binary
645 lines were read
GLPK Integer Optimizer 5.0
217 rows, 420 columns, 1462 non-zeros
208 integer variables, all of which are binary
Preprocessing...
204 constraint coefficient(s) were reduced
217 rows, 418 columns, 1460 non-zeros
208 integer variables, all of which are binary
Scaling...
 A: min|aij| =  1.479e-03  max|aij| =  4.000e+00  ratio =  2.704e+03
GM: min|aij| =  1.387e-01  max|aij| =  7.211e+00  ratio =  5.200e+01
EQ: min|aij| =  1.923e-02  max|aij| =  1.000e+00  ratio =  5.200e+01
2N: min|aij| =  1.562e-02  max|aij| =  1.690e+00  ratio =  1.082e+02
Constructing initial basis...
Size of triangular part is 217
Solving LP relaxation...
GLPK Simplex Optimizer 5.0
217 rows, 418 columns, 1460 non-zeros
      0: obj =   4.000000000e+00 inf =   9.500e+00 (5)
     29: obj =   3.957060892e-01 inf =   0.000e+00 (0)
*   108: obj =  -1.413721414e+00 inf =   2.587e-16 (0)
OPTIMAL LP SOLUTION FOUND
Integer optimization begins...
Long-step dual simplex will be used
+   108: mip =     not found yet >=              -inf        (1; 0)
+   111: >>>>>  -1.413721414e+00 >=  -1.413721414e+00   0.0% (3; 0)
+   111: mip =  -1.413721414e+00 >=     tree is empty   0.0% (0; 5)
INTEGER OPTIMAL SOLUTION FOUND
Time used:   0.0 secs
Memory used: 0.6 Mb (678540 bytes)
